
  17    0


   0   9 2 3 5 6 7 13 14 15 16 
   3   3 12 11 8 
   4   2 10 4 
   9   1 8 
   2   1 9 
   9   1 8 
  10   1 8 
   7   1 17
   8   1 17
   2   1 17
   9   1 17
   4   1 17
   6   1 17
   9   1 17
   3   1 17
  10   1 17
   0   0 
